(set-logic QF_NIA)
(set-info :source |
     Constraint systems stating that a matrix interpretation is
     compatible with a rewriting system (weakly compatible with
     all rules, strictly compatible with at least one).

     Contributed by Johannes Waldmann at HTKW Leipzig.
   |)
(set-info :smt-lib-version 2.0)
(set-info :category "crafted")
(set-info :status sat)
(declare-fun n0 () Int)
(assert (>= n0 0))
(declare-fun n1 () Int)
(assert (>= n1 0))
(declare-fun n2 () Int)
(assert (>= n2 0))
(declare-fun n3 () Int)
(assert (>= n3 0))
(declare-fun n4 () Int)
(assert (>= n4 0))
(declare-fun n5 () Int)
(assert (>= n5 0))
(declare-fun n6 () Int)
(assert (>= n6 0))
(declare-fun n7 () Int)
(assert (>= n7 0))
(declare-fun n8 () Int)
(assert (>= n8 0))
(declare-fun n9 () Int)
(assert (>= n9 0))
(declare-fun n10 () Int)
(assert (>= n10 0))
(declare-fun n11 () Int)
(assert (>= n11 0))
(declare-fun n12 () Int)
(assert (>= n12 0))
(declare-fun n13 () Int)
(assert (>= n13 0))
(declare-fun n14 () Int)
(assert (>= n14 0))
(declare-fun n15 () Int)
(assert (>= n15 0))
(declare-fun n16 () Int)
(assert (>= n16 0))
(declare-fun n17 () Int)
(assert (>= n17 0))
(declare-fun n18 () Int)
(assert (>= n18 0))
(declare-fun n19 () Int)
(assert (>= n19 0))
(declare-fun n20 () Int)
(assert (>= n20 0))
(declare-fun n21 () Int)
(assert (>= n21 0))
(declare-fun n22 () Int)
(assert (>= n22 0))
(declare-fun n23 () Int)
(assert (>= n23 0))
(declare-fun n24 () Int)
(assert (= n24 (* n13 n14)))
(declare-fun n25 () Int)
(assert (= n25 (+ n12 n24)))
(declare-fun n26 () Int)
(assert (= n26 (* n13 n15)))
(declare-fun n27 () Int)
(assert (= n27 (* n13 n16)))
(declare-fun n28 () Int)
(assert (= n28 (+ n12 n27)))
(declare-fun n29 () Int)
(assert (= n29 (* n13 n17)))
(declare-fun n30 () Int)
(assert (= n30 (* n17 n12)))
(declare-fun n31 () Int)
(assert (= n31 (+ n16 n30)))
(declare-fun n32 () Int)
(assert (= n32 (* n17 n13)))
(declare-fun n33 () Int)
(assert (= n33 (* n26 n16)))
(declare-fun n34 () Int)
(assert (= n34 (+ n25 n33)))
(declare-fun n35 () Int)
(assert (= n35 (* n26 n17)))
(declare-fun n36 () Int)
(assert (= n36 (* n15 n25)))
(declare-fun n37 () Int)
(assert (= n37 (+ n14 n36)))
(declare-fun n38 () Int)
(assert (= n38 (* n15 n26)))
(declare-fun n39 () Int)
(assert (= n39 (* n17 n34)))
(declare-fun n40 () Int)
(assert (= n40 (+ n16 n39)))
(declare-fun n41 () Int)
(assert (= n41 (* n17 n35)))
(declare-fun n42 () Int)
(assert (= n42 (* n19 n18)))
(declare-fun n43 () Int)
(assert (= n43 (+ n18 n42)))
(declare-fun n44 () Int)
(assert (= n44 (* n19 n19)))
(declare-fun n45 () Int)
(assert (= n45 (* n21 n20)))
(declare-fun n46 () Int)
(assert (= n46 (+ n20 n45)))
(declare-fun n47 () Int)
(assert (= n47 (* n21 n21)))
(declare-fun n48 () Int)
(assert (= n48 (* n5 n28)))
(declare-fun n49 () Int)
(assert (= n49 (+ n4 n48)))
(declare-fun n50 () Int)
(assert (= n50 (* n5 n29)))
(declare-fun n51 () Int)
(assert (= n51 (* n15 n28)))
(declare-fun n52 () Int)
(assert (= n52 (+ n14 n51)))
(declare-fun n53 () Int)
(assert (= n53 (* n15 n29)))
(declare-fun n54 () Int)
(assert (= n54 (* n1 n14)))
(declare-fun n55 () Int)
(assert (= n55 (+ n0 n54)))
(declare-fun n56 () Int)
(assert (= n56 (* n1 n15)))
(declare-fun n57 () Int)
(assert (= n57 (* n1 n16)))
(declare-fun n58 () Int)
(assert (= n58 (+ n0 n57)))
(declare-fun n59 () Int)
(assert (= n59 (* n1 n17)))
(declare-fun n60 () Int)
(assert (= n60 (* n56 n31)))
(declare-fun n61 () Int)
(assert (= n61 (+ n55 n60)))
(declare-fun n62 () Int)
(assert (= n62 (* n56 n32)))
(declare-fun n63 () Int)
(assert (= n63 (* n59 n37)))
(declare-fun n64 () Int)
(assert (= n64 (+ n58 n63)))
(declare-fun n65 () Int)
(assert (= n65 (* n59 n38)))
(assert (>= n61 n64))
(assert (>= n62 n65))
(declare-fun n66 () Int)
(assert (= n66 (* n3 n22)))
(declare-fun n67 () Int)
(assert (= n67 (+ n2 n66)))
(declare-fun n68 () Int)
(assert (= n68 (* n3 n23)))
(declare-fun n69 () Int)
(assert (= n69 (* n11 n14)))
(declare-fun n70 () Int)
(assert (= n70 (+ n10 n69)))
(declare-fun n71 () Int)
(assert (= n71 (* n11 n15)))
(assert (>= n67 n70))
(assert (>= n68 n71))
(declare-fun n72 () Int)
(assert (= n72 (* n3 n40)))
(declare-fun n73 () Int)
(assert (= n73 (+ n2 n72)))
(declare-fun n74 () Int)
(assert (= n74 (* n3 n41)))
(assert (>= n49 n73))
(assert (>= n50 n74))
(declare-fun n75 () Int)
(assert (= n75 (* n5 n34)))
(declare-fun n76 () Int)
(assert (= n76 (+ n4 n75)))
(declare-fun n77 () Int)
(assert (= n77 (* n5 n35)))
(assert (>= n49 n76))
(assert (>= n50 n77))
(declare-fun n78 () Int)
(assert (= n78 (* n5 n18)))
(declare-fun n79 () Int)
(assert (= n79 (+ n4 n78)))
(declare-fun n80 () Int)
(assert (= n80 (* n5 n19)))
(declare-fun n81 () Int)
(assert (= n81 (* n1 n12)))
(declare-fun n82 () Int)
(assert (= n82 (+ n0 n81)))
(declare-fun n83 () Int)
(assert (= n83 (* n1 n13)))
(assert (>= n79 n82))
(assert (>= n80 n83))
(declare-fun n84 () Int)
(assert (= n84 (* n5 n12)))
(declare-fun n85 () Int)
(assert (= n85 (+ n4 n84)))
(declare-fun n86 () Int)
(assert (= n86 (* n5 n13)))
(assert (>= n10 n85))
(assert (>= n11 n86))
(declare-fun n87 () Int)
(assert (= n87 (* n26 n31)))
(declare-fun n88 () Int)
(assert (= n88 (+ n25 n87)))
(declare-fun n89 () Int)
(assert (= n89 (* n26 n32)))
(declare-fun n90 () Int)
(assert (= n90 (* n53 n37)))
(declare-fun n91 () Int)
(assert (= n91 (+ n52 n90)))
(declare-fun n92 () Int)
(assert (= n92 (* n53 n38)))
(assert (>= n88 n91))
(assert (>= n89 n92))
(declare-fun n93 () Int)
(assert (= n93 (* n13 n18)))
(declare-fun n94 () Int)
(assert (= n94 (+ n12 n93)))
(declare-fun n95 () Int)
(assert (= n95 (* n13 n19)))
(assert (>= n94 n16))
(assert (>= n95 n17))
(declare-fun n96 () Int)
(assert (= n96 (* n13 n46)))
(declare-fun n97 () Int)
(assert (= n97 (+ n12 n96)))
(declare-fun n98 () Int)
(assert (= n98 (* n13 n47)))
(assert (>= n97 n22))
(assert (>= n98 n23))
(declare-fun n99 () Int)
(assert (= n99 (* n15 n22)))
(declare-fun n100 () Int)
(assert (= n100 (+ n14 n99)))
(declare-fun n101 () Int)
(assert (= n101 (* n15 n23)))
(declare-fun n102 () Int)
(assert (= n102 (* n23 n14)))
(declare-fun n103 () Int)
(assert (= n103 (+ n22 n102)))
(declare-fun n104 () Int)
(assert (= n104 (* n23 n15)))
(assert (>= n100 n103))
(assert (>= n101 n104))
(assert (>= n16 n46))
(assert (>= n17 n47))
(declare-fun n105 () Int)
(assert (= n105 (* n17 n28)))
(declare-fun n106 () Int)
(assert (= n106 (+ n16 n105)))
(declare-fun n107 () Int)
(assert (= n107 (* n17 n29)))
(declare-fun n108 () Int)
(assert (= n108 (* n15 n40)))
(declare-fun n109 () Int)
(assert (= n109 (+ n14 n108)))
(declare-fun n110 () Int)
(assert (= n110 (* n15 n41)))
(assert (>= n106 n109))
(assert (>= n107 n110))
(declare-fun n111 () Int)
(assert (= n111 (* n17 n18)))
(declare-fun n112 () Int)
(assert (= n112 (+ n16 n111)))
(declare-fun n113 () Int)
(assert (= n113 (* n17 n19)))
(declare-fun n114 () Int)
(assert (= n114 (* n13 n12)))
(declare-fun n115 () Int)
(assert (= n115 (+ n12 n114)))
(declare-fun n116 () Int)
(assert (= n116 (* n13 n13)))
(assert (>= n112 n115))
(assert (>= n113 n116))
(assert (>= n22 n31))
(assert (>= n23 n32))
(declare-fun n117 () Int)
(assert (= n117 (* n44 n43)))
(declare-fun n118 () Int)
(assert (= n118 (+ n43 n117)))
(declare-fun n119 () Int)
(assert (= n119 (* n44 n44)))
(assert (>= n22 n118))
(assert (>= n23 n119))
(assert (or (> n61 n64) (> n67 n70) (> n49 n73) (> n49 n76) (> n79 n82) (> n10 n85)))
(check-sat)
(exit)
